20
587 233 220
56 32 28
92 68 39
90 86 29
73 54 52
114 100 45
94 51 36
108 59 38
89 82 61
81 71 43
61 53 37
85 70 58
111 98 39
66 62 59
117 87 49
70 62 40
36 30 30
80 62 57
73 72 54
89 67 41
82 51 38
thpack7_70